\ LP format - for model browsing. Use MPS format to capture full model detail.
Maximize
  + 670 Constant
Subject To
 R0: 4 a + 2 p <= 200
 R1: - 0.99 a + 6.7 p <= 0
 R2: e >= 4
Bounds
 e >= 4
 Constant = 1
Generals
 a p e
End
